2 1 6 1 9 1 14 1 1 1 4 1 9 1 12 1
18 5 16 5 14 5 13 5 11 5 9 5 11 5 13 5 
18 5 16 5 14 5 13 5 11 5 9 5 11 5 13 5 
14 3 2 3 9 3 7 3 6 3 2 3 6 3 4 3
2 3 2 3 2 3 9 3 7 3 14 3 14 3 13 3 
14 1 13 1 14 1 2 1 13 1 9 1 4 1 6 1
2 1 14 1 13 1 11 1 13 1 18 1 21 1 23 1
19 1 18 1 16 1 19 1 18 1 16 1 14 1 13 1
11 1 9 1 7 1 6 1 4 1 7 1 6 1 4 1 
6 1 11 1 9 1 7 1 9 1 7 1 6 1 4 1
2 1 2 1 11 1 13 1 14 1 13 1 11 1 9 1 
7 1 6 1 4 1 11 1 9 1 11 1 14 1 13 1
14 3 18 3 16 5 14 3 18 5
23 5 21 5 23 5